c description: Graph pigeonhole principle formula on fast_gnp_random_graph(20,10,0.5)
c generator: CNFgen (0.9.0)
c copyright: (C) 2012-2020 Massimo Lauria <massimo.lauria@uniroma1.it>
c url: https://massimolauria.net/cnfgen
c
p cnf 104 554
1 2 3 4 5 6 7 0
8 9 10 11 12 13 0
14 15 16 17 0
18 19 20 21 22 23 24 0
25 26 27 28 29 30 0
31 32 0
33 34 35 36 37 38 0
39 40 41 42 43 44 0
45 46 47 48 0
49 50 51 52 53 0
54 55 56 57 58 0
59 60 61 62 63 64 65 66 67 0
68 69 70 0
71 72 73 74 75 76 0
77 78 79 80 81 0
82 83 84 85 86 87 0
88 89 90 0
91 92 93 94 95 96 0
97 98 99 100 101 0
102 103 104 0
-18 -33 0
-18 -39 0
-18 -45 0
-18 -49 0
-18 -59 0
-18 -71 0
-18 -77 0
-18 -91 0
-18 -97 0
-33 -39 0
-33 -45 0
-33 -49 0
-33 -59 0
-33 -71 0
-33 -77 0
-33 -91 0
-33 -97 0
-39 -45 0
-39 -49 0
-39 -59 0
-39 -71 0
-39 -77 0
-39 -91 0
-39 -97 0
-45 -49 0
-45 -59 0
-45 -71 0
-45 -77 0
-45 -91 0
-45 -97 0
-49 -59 0
-49 -71 0
-49 -77 0
-49 -91 0
-49 -97 0
-59 -71 0
-59 -77 0
-59 -91 0
-59 -97 0
-71 -77 0
-71 -91 0
-71 -97 0
-77 -91 0
-77 -97 0
-91 -97 0
-1 -8 0
-1 -19 0
-1 -34 0
-1 -40 0
-1 -46 0
-1 -50 0
-1 -54 0
-1 -60 0
-1 -72 0
-1 -82 0
-1 -98 0
-1 -102 0
-8 -19 0
-8 -34 0
-8 -40 0
-8 -46 0
-8 -50 0
-8 -54 0
-8 -60 0
-8 -72 0
-8 -82 0
-8 -98 0
-8 -102 0
-19 -34 0
-19 -40 0
-19 -46 0
-19 -50 0
-19 -54 0
-19 -60 0
-19 -72 0
-19 -82 0
-19 -98 0
-19 -102 0
-34 -40 0
-34 -46 0
-34 -50 0
-34 -54 0
-34 -60 0
-34 -72 0
-34 -82 0
-34 -98 0
-34 -102 0
-40 -46 0
-40 -50 0
-40 -54 0
-40 -60 0
-40 -72 0
-40 -82 0
-40 -98 0
-40 -102 0
-46 -50 0
-46 -54 0
-46 -60 0
-46 -72 0
-46 -82 0
-46 -98 0
-46 -102 0
-50 -54 0
-50 -60 0
-50 -72 0
-50 -82 0
-50 -98 0
-50 -102 0
-54 -60 0
-54 -72 0
-54 -82 0
-54 -98 0
-54 -102 0
-60 -72 0
-60 -82 0
-60 -98 0
-60 -102 0
-72 -82 0
-72 -98 0
-72 -102 0
-82 -98 0
-82 -102 0
-98 -102 0
-2 -9 0
-2 -14 0
-2 -20 0
-2 -35 0
-2 -41 0
-2 -47 0
-2 -51 0
-2 -55 0
-2 -61 0
-2 -68 0
-2 -73 0
-2 -92 0
-2 -103 0
-9 -14 0
-9 -20 0
-9 -35 0
-9 -41 0
-9 -47 0
-9 -51 0
-9 -55 0
-9 -61 0
-9 -68 0
-9 -73 0
-9 -92 0
-9 -103 0
-14 -20 0
-14 -35 0
-14 -41 0
-14 -47 0
-14 -51 0
-14 -55 0
-14 -61 0
-14 -68 0
-14 -73 0
-14 -92 0
-14 -103 0
-20 -35 0
-20 -41 0
-20 -47 0
-20 -51 0
-20 -55 0
-20 -61 0
-20 -68 0
-20 -73 0
-20 -92 0
-20 -103 0
-35 -41 0
-35 -47 0
-35 -51 0
-35 -55 0
-35 -61 0
-35 -68 0
-35 -73 0
-35 -92 0
-35 -103 0
-41 -47 0
-41 -51 0
-41 -55 0
-41 -61 0
-41 -68 0
-41 -73 0
-41 -92 0
-41 -103 0
-47 -51 0
-47 -55 0
-47 -61 0
-47 -68 0
-47 -73 0
-47 -92 0
-47 -103 0
-51 -55 0
-51 -61 0
-51 -68 0
-51 -73 0
-51 -92 0
-51 -103 0
-55 -61 0
-55 -68 0
-55 -73 0
-55 -92 0
-55 -103 0
-61 -68 0
-61 -73 0
-61 -92 0
-61 -103 0
-68 -73 0
-68 -92 0
-68 -103 0
-73 -92 0
-73 -103 0
-92 -103 0
-10 -15 0
-10 -25 0
-10 -36 0
-10 -56 0
-10 -78 0
-15 -25 0
-15 -36 0
-15 -56 0
-15 -78 0
-25 -36 0
-25 -56 0
-25 -78 0
-36 -56 0
-36 -78 0
-56 -78 0
-3 -21 0
-3 -26 0
-3 -42 0
-3 -52 0
-3 -62 0
-3 -69 0
-3 -88 0
-3 -93 0
-3 -99 0
-21 -26 0
-21 -42 0
-21 -52 0
-21 -62 0
-21 -69 0
-21 -88 0
-21 -93 0
-21 -99 0
-26 -42 0
-26 -52 0
-26 -62 0
-26 -69 0
-26 -88 0
-26 -93 0
-26 -99 0
-42 -52 0
-42 -62 0
-42 -69 0
-42 -88 0
-42 -93 0
-42 -99 0
-52 -62 0
-52 -69 0
-52 -88 0
-52 -93 0
-52 -99 0
-62 -69 0
-62 -88 0
-62 -93 0
-62 -99 0
-69 -88 0
-69 -93 0
-69 -99 0
-88 -93 0
-88 -99 0
-93 -99 0
-11 -27 0
-11 -43 0
-11 -63 0
-11 -83 0
-11 -104 0
-27 -43 0
-27 -63 0
-27 -83 0
-27 -104 0
-43 -63 0
-43 -83 0
-43 -104 0
-63 -83 0
-63 -104 0
-83 -104 0
-4 -12 0
-4 -16 0
-4 -22 0
-4 -28 0
-4 -37 0
-4 -53 0
-4 -64 0
-4 -74 0
-4 -79 0
-4 -84 0
-4 -94 0
-4 -100 0
-12 -16 0
-12 -22 0
-12 -28 0
-12 -37 0
-12 -53 0
-12 -64 0
-12 -74 0
-12 -79 0
-12 -84 0
-12 -94 0
-12 -100 0
-16 -22 0
-16 -28 0
-16 -37 0
-16 -53 0
-16 -64 0
-16 -74 0
-16 -79 0
-16 -84 0
-16 -94 0
-16 -100 0
-22 -28 0
-22 -37 0
-22 -53 0
-22 -64 0
-22 -74 0
-22 -79 0
-22 -84 0
-22 -94 0
-22 -100 0
-28 -37 0
-28 -53 0
-28 -64 0
-28 -74 0
-28 -79 0
-28 -84 0
-28 -94 0
-28 -100 0
-37 -53 0
-37 -64 0
-37 -74 0
-37 -79 0
-37 -84 0
-37 -94 0
-37 -100 0
-53 -64 0
-53 -74 0
-53 -79 0
-53 -84 0
-53 -94 0
-53 -100 0
-64 -74 0
-64 -79 0
-64 -84 0
-64 -94 0
-64 -100 0
-74 -79 0
-74 -84 0
-74 -94 0
-74 -100 0
-79 -84 0
-79 -94 0
-79 -100 0
-84 -94 0
-84 -100 0
-94 -100 0
-5 -29 0
-5 -31 0
-5 -65 0
-5 -75 0
-5 -85 0
-5 -95 0
-29 -31 0
-29 -65 0
-29 -75 0
-29 -85 0
-29 -95 0
-31 -65 0
-31 -75 0
-31 -85 0
-31 -95 0
-65 -75 0
-65 -85 0
-65 -95 0
-75 -85 0
-75 -95 0
-85 -95 0
-6 -13 0
-6 -23 0
-6 -30 0
-6 -32 0
-6 -44 0
-6 -57 0
-6 -66 0
-6 -80 0
-6 -86 0
-6 -89 0
-13 -23 0
-13 -30 0
-13 -32 0
-13 -44 0
-13 -57 0
-13 -66 0
-13 -80 0
-13 -86 0
-13 -89 0
-23 -30 0
-23 -32 0
-23 -44 0
-23 -57 0
-23 -66 0
-23 -80 0
-23 -86 0
-23 -89 0
-30 -32 0
-30 -44 0
-30 -57 0
-30 -66 0
-30 -80 0
-30 -86 0
-30 -89 0
-32 -44 0
-32 -57 0
-32 -66 0
-32 -80 0
-32 -86 0
-32 -89 0
-44 -57 0
-44 -66 0
-44 -80 0
-44 -86 0
-44 -89 0
-57 -66 0
-57 -80 0
-57 -86 0
-57 -89 0
-66 -80 0
-66 -86 0
-66 -89 0
-80 -86 0
-80 -89 0
-86 -89 0
-7 -17 0
-7 -24 0
-7 -38 0
-7 -48 0
-7 -58 0
-7 -67 0
-7 -70 0
-7 -76 0
-7 -81 0
-7 -87 0
-7 -90 0
-7 -96 0
-7 -101 0
-17 -24 0
-17 -38 0
-17 -48 0
-17 -58 0
-17 -67 0
-17 -70 0
-17 -76 0
-17 -81 0
-17 -87 0
-17 -90 0
-17 -96 0
-17 -101 0
-24 -38 0
-24 -48 0
-24 -58 0
-24 -67 0
-24 -70 0
-24 -76 0
-24 -81 0
-24 -87 0
-24 -90 0
-24 -96 0
-24 -101 0
-38 -48 0
-38 -58 0
-38 -67 0
-38 -70 0
-38 -76 0
-38 -81 0
-38 -87 0
-38 -90 0
-38 -96 0
-38 -101 0
-48 -58 0
-48 -67 0
-48 -70 0
-48 -76 0
-48 -81 0
-48 -87 0
-48 -90 0
-48 -96 0
-48 -101 0
-58 -67 0
-58 -70 0
-58 -76 0
-58 -81 0
-58 -87 0
-58 -90 0
-58 -96 0
-58 -101 0
-67 -70 0
-67 -76 0
-67 -81 0
-67 -87 0
-67 -90 0
-67 -96 0
-67 -101 0
-70 -76 0
-70 -81 0
-70 -87 0
-70 -90 0
-70 -96 0
-70 -101 0
-76 -81 0
-76 -87 0
-76 -90 0
-76 -96 0
-76 -101 0
-81 -87 0
-81 -90 0
-81 -96 0
-81 -101 0
-87 -90 0
-87 -96 0
-87 -101 0
-90 -96 0
-90 -101 0
-96 -101 0